%chk=h20.chk
#P B3LYP/6-31G*

test-water

0 1
O 0.874000 0.000000 -1.247000
H 0.288000 0.000000 -2.004000
H 0.288000 0.000000 -0.490000

